2615014
17,49,6,75,47,73,91,102,29,60,82,51,33,71,85,26,68,69,13,70,103,63,22,104,46,38,30,74,56,25,89,44,0,4,8,36,65,76,108,28,15,24,62,19,94,31,80,1,58,83,50,78,66,3,14,21,9,23,5,84,42,43,2,81,100,34,97,45,93,106,55,12,54,39,67,20,16,79,92,95,86,72,98,96,88,37,40,48,10,90,57,53,101,99,52,18,61,41,105,32,107,77,59,64,35,7,27,11,87